1777055.0
1766539.0
1851299.0
1828790.0
1825368.0
1763991.0
1838490.0
1829581.0
1804161.0
1844376.0
1869273.0
1828735.0
1846197.0
1792109.0
1838187.0
1781699.0
1774624.0
1814162.0
1831888.0
1783711.0
1847167.0
1768829.0
1793705.0
1773609.0
1881602.0
1749955.0
1823784.0
1798374.0
1783589.0
1797291.0
